p cnf 44 37
c p distribution  0.01 0.99
c p distribution  0.6 0.4
c p distribution  0.3 0.7
c p distribution  0.9 0.1
c p distribution  0.8 0.2
c p distribution  0.7 0.3
c p distribution  1.0 0.0
c p distribution  0.1 0.9
c p distribution  0.01 0.99
c p distribution  0.5 0.5
c p distribution  0.05 0.95
c p distribution  0.01 0.99
c p distribution  0.98 0.02
c p distribution  0.05 0.95
29 -1 0
30 -2 0
31 -39 -3 0
32 -39 -4 0
31 -40 -5 0
32 -40 -6 0
33 -31 -35 -7 0
34 -31 -35 -8 0
33 -31 -36 -9 0
34 -31 -36 -10 0
33 -32 -35 -11 0
34 -32 -35 -12 0
33 -32 -36 -8 0
34 -32 -36 -7 0
35 -37 -41 -13 0
36 -37 -41 -14 0
35 -37 -42 -13 0
36 -37 -42 -14 0
35 -38 -41 -13 0
36 -38 -41 -14 0
35 -38 -42 -14 0
36 -38 -42 -13 0
37 -39 -15 0
38 -39 -16 0
37 -40 -17 0
38 -40 -18 0
39 -19 0
40 -20 0
41 -29 -21 0
42 -29 -22 0
41 -30 -23 0
42 -30 -24 0
43 -35 -25 0
44 -35 -26 0
43 -36 -27 0
44 -36 -28 0
-33 0

